
50
139344

6288 3288
11833 9833
11593 9593
11184 9184
9900 7900
10751 8751
2005 5
9270 6270
4477 2477
9305 7305
6324 4324
7601 5601
7428 5428
7762 5762
11274 8274
12816 9816
6456 3456
10062 8062
10893 8893
5921 3921
3235 1235
7974 4974
9647 7647
7242 5242
3845 1845
9055 7055
6246 3246
10863 8863
3685 1685
7939 5939
5855 3855
11850 9850
3387 1387
11802 8802
6177 4177
5719 3719
5082 2082
6946 4946
12294 9294
11994 9994
12396 9396
8113 6113
4361 2361
7073 5073
9498 6498
4960 2960
12870 9870
3846 846
4349 2349
4033 2033
